outputs/case_145.model.txt
act_21_fail_to_report_to_trade_association = False
act_11_outside_license_scope = False
act_22_use_unapproved_advertisement = False
act_5_force_or_induce_contract = False
solicitation_handling_system_established = False
has_fixed_office = True
act_25_sell_unapproved_foreign_policy_discount = False
act_14_spread_false_info = False
act_3_unapproved_insurance_business = False
act_10_convicted_fraud_or_forgery = False
is_public_company = False
act_16_transfer_application_documents = False
has_certain_scale = False
act_18_fail_to_cancel_license_in_time = False
has_notary_license = False
audit_system_established = False
act_19_unauthorized_suspend_or_terminate_business = False
act_23_pay_commission_to_non_actual_agent = True
act_31_damage_insurance_image = False
act_7_induce_policy_surrender_or_loan = False
act_9_unauthorized_use_license = False
act_24_fail_to_confirm_suitability_for_elderly = True
act_29_fail_to_fill_solicitation_report = True
act_4_hide_important_contract_info = False
act_20_fail_to_reappoint_agent_after_resignation = False
act_1_report_false = False
act_17_employ_unqualified_personnel = False
act_13_illegal_insurance_payment = False
has_agent_license = True
act_12_illegal_collection = False
has_dedicated_accounting_books = True
act_2_unapproved_agent_business = False
act_30_other_violations = False
act_6_false_advertisement = False
internal_control_established = False
act_8_misappropriate_funds = False
act_28_induce_contract_termination_or_loan_payment = False
act_26_false_financial_or_business_report = False
has_broker_license = False
act_15_authorize_others_to_operate = False
act_27_conflict_of_interest = False
license_and_bond_insurance_ok = True
fixed_office_and_accounting = True
single_license_only = True
prohibited_acts = False
insurance_purchased = True
license_obtained = True
penalty = False
bond_deposited = True
internal_control_required = True